(set-info :source |printed by MathSAT|)
(declare-fun |!{$(in_main#0)<MAX>}| () Int)
(declare-fun |!{$(in_main#0)<MAX>}.next| () Int)
(declare-fun |!{$(in_main#0)<i>}| () Int)
(declare-fun |!{$(in_main#0)<i>}.next| () Int)
(declare-fun |!{$(in_main#0)<largest1>}| () Int)
(declare-fun |!{$(in_main#0)<largest1>}.next| () Int)
(declare-fun |!{$(in_main#0)<largest2>}| () Int)
(declare-fun |!{$(in_main#0)<largest2>}.next| () Int)
(declare-fun |!{$(in_main#0)<x>}| () Int)
(declare-fun |!{$(in_main#0)<x>}.next| () Int)
(declare-fun |!{$(in_main#0)<array.1>}| () (Array Int Int))
(declare-fun |!{$(in_main#0)<array.1>}.next| () (Array Int Int))
(declare-fun |!{$(in_main#0)<$(in___VERIFIER_nondet_int#0)<h#<__VERIFIER_nondet_int.return>>>}| () Int)
(declare-fun |!{$(in_main#0)<$(in___VERIFIER_nondet_int#1)<h#<__VERIFIER_nondet_int.return>>>}| () Int)
(declare-fun !pc () Int)
(declare-fun !pc.next () Int)
(declare-fun |%{$(in_main#0)<largest1>}#1| () Int)
(declare-fun |%{$(in_main#0)<largest2>}#1| () Int)
(declare-fun |%{$(in_main#0)<x>}#1| () Int)
(declare-fun |%{$(in_main#0)<array.1>}#1| () (Array Int Int))
(declare-fun |%{$(in_main#0)<largest2>}#2| () Int)
(declare-fun |%{$(in_main#0)<largest1>}#2| () Int)
(declare-fun |%{$(in_main#0)<largest1>}#3| () Int)
(declare-fun |%{$(in_main#0)<largest2>}#3| () Int)
(define-fun .def_38 () Int (! !pc :next !pc.next))
(define-fun .def_41 () Bool (! (= .def_38 2) :init true))
(define-fun .def_253 () Bool (= .def_38 30))
(define-fun .def_210 () Bool (= !pc.next 65))
(define-fun .def_256 () Bool (and .def_210 .def_253))
(define-fun .def_247 () Bool (= |!{$(in_main#0)<largest2>}.next| |%{$(in_main#0)<largest2>}#3|))
(define-fun .def_245 () Bool (= |!{$(in_main#0)<largest1>}.next| |%{$(in_main#0)<largest1>}#3|))
(define-fun .def_243 () Bool (= |!{$(in_main#0)<i>}.next| 2))
(define-fun .def_8 () Int (! |!{$(in_main#0)<MAX>}| :next |!{$(in_main#0)<MAX>}.next|))
(define-fun .def_81 () Bool (= .def_8 |!{$(in_main#0)<MAX>}.next|))
(define-fun .def_244 () Bool (and .def_81 .def_243))
(define-fun .def_246 () Bool (and .def_244 .def_245))
(define-fun .def_248 () Bool (and .def_246 .def_247))
(define-fun .def_16 () Int (! |!{$(in_main#0)<x>}| :next |!{$(in_main#0)<x>}.next|))
(define-fun .def_89 () Bool (= .def_16 |!{$(in_main#0)<x>}.next|))
(define-fun .def_249 () Bool (and .def_89 .def_248))
(define-fun .def_18 () (Array Int Int) (! |!{$(in_main#0)<array.1>}| :next |!{$(in_main#0)<array.1>}.next|))
(define-fun .def_91 () Bool (= .def_18 |!{$(in_main#0)<array.1>}.next|))
(define-fun .def_250 () Bool (and .def_91 .def_249))
(define-fun .def_218 () Int (select .def_18 0))
(define-fun .def_232 () Bool (= .def_218 |%{$(in_main#0)<largest2>}#3|))
(define-fun .def_219 () Int (select .def_18 1))
(define-fun .def_227 () Bool (= .def_219 |%{$(in_main#0)<largest1>}#3|))
(define-fun .def_220 () Bool (<= .def_219 .def_218))
(define-fun .def_221 () Bool (not .def_220))
(define-fun .def_229 () Bool (and .def_221 .def_227))
(define-fun .def_234 () Bool (and .def_229 .def_232))
(define-fun .def_231 () Bool (= .def_219 |%{$(in_main#0)<largest2>}#3|))
(define-fun .def_226 () Bool (= .def_218 |%{$(in_main#0)<largest1>}#3|))
(define-fun .def_228 () Bool (and .def_220 .def_226))
(define-fun .def_233 () Bool (and .def_228 .def_231))
(define-fun .def_235 () Bool (or .def_233 .def_234))
(define-fun .def_251 () Bool (and .def_235 .def_250))
(define-fun .def_10 () Int (! |!{$(in_main#0)<i>}| :next |!{$(in_main#0)<i>}.next|))
(define-fun .def_163 () Bool (<= .def_8 .def_10))
(define-fun .def_252 () Bool (and .def_163 .def_251))
(define-fun .def_257 () Bool (and .def_252 .def_256))
(define-fun .def_66 () Bool (= !pc.next 30))
(define-fun .def_254 () Bool (and .def_66 .def_253))
(define-fun .def_217 () (Array Int Int) (store .def_18 .def_10 |!{$(in_main#0)<$(in___VERIFIER_nondet_int#1)<h#<__VERIFIER_nondet_int.return>>>}|))
(define-fun .def_240 () Bool (= |!{$(in_main#0)<array.1>}.next| .def_217))
(define-fun .def_195 () Int (* (- 1) |!{$(in_main#0)<i>}.next|))
(define-fun .def_196 () Int (+ .def_10 .def_195))
(define-fun .def_197 () Bool (= .def_196 (- 1)))
(define-fun .def_198 () Bool (and .def_81 .def_197))
(define-fun .def_12 () Int (! |!{$(in_main#0)<largest1>}| :next |!{$(in_main#0)<largest1>}.next|))
(define-fun .def_85 () Bool (= .def_12 |!{$(in_main#0)<largest1>}.next|))
(define-fun .def_237 () Bool (and .def_85 .def_198))
(define-fun .def_14 () Int (! |!{$(in_main#0)<largest2>}| :next |!{$(in_main#0)<largest2>}.next|))
(define-fun .def_87 () Bool (= .def_14 |!{$(in_main#0)<largest2>}.next|))
(define-fun .def_238 () Bool (and .def_87 .def_237))
(define-fun .def_239 () Bool (and .def_89 .def_238))
(define-fun .def_241 () Bool (and .def_239 .def_240))
(define-fun .def_164 () Bool (not .def_163))
(define-fun .def_242 () Bool (and .def_164 .def_241))
(define-fun .def_255 () Bool (and .def_242 .def_254))
(define-fun .def_258 () Bool (or .def_255 .def_257))
(define-fun .def_209 () Bool (= .def_38 65))
(define-fun .def_153 () Bool (= !pc.next 99))
(define-fun .def_213 () Bool (and .def_153 .def_209))
(define-fun .def_143 () Bool (= |!{$(in_main#0)<x>}.next| 0))
(define-fun .def_83 () Bool (= .def_10 |!{$(in_main#0)<i>}.next|))
(define-fun .def_94 () Bool (and .def_81 .def_83))
(define-fun .def_95 () Bool (and .def_85 .def_94))
(define-fun .def_96 () Bool (and .def_87 .def_95))
(define-fun .def_144 () Bool (and .def_96 .def_143))
(define-fun .def_145 () Bool (and .def_91 .def_144))
(define-fun .def_207 () Bool (and .def_145 .def_163))
(define-fun .def_214 () Bool (and .def_207 .def_213))
(define-fun .def_211 () Bool (and .def_209 .def_210))
(define-fun .def_201 () Bool (= |!{$(in_main#0)<largest2>}.next| |%{$(in_main#0)<largest2>}#2|))
(define-fun .def_199 () Bool (= |!{$(in_main#0)<largest1>}.next| |%{$(in_main#0)<largest1>}#2|))
(define-fun .def_200 () Bool (and .def_198 .def_199))
(define-fun .def_202 () Bool (and .def_200 .def_201))
(define-fun .def_203 () Bool (and .def_89 .def_202))
(define-fun .def_204 () Bool (and .def_91 .def_203))
(define-fun .def_190 () Bool (= .def_12 |%{$(in_main#0)<largest2>}#2|))
(define-fun .def_165 () Int (select .def_18 .def_10))
(define-fun .def_187 () Bool (= .def_165 |%{$(in_main#0)<largest1>}#2|))
(define-fun .def_166 () Bool (<= .def_12 .def_165))
(define-fun .def_189 () Bool (and .def_166 .def_187))
(define-fun .def_191 () Bool (and .def_189 .def_190))
(define-fun .def_186 () Bool (= .def_12 |%{$(in_main#0)<largest1>}#2|))
(define-fun .def_177 () Bool (= .def_165 |%{$(in_main#0)<largest2>}#2|))
(define-fun .def_168 () Bool (<= .def_165 .def_14))
(define-fun .def_169 () Bool (not .def_168))
(define-fun .def_179 () Bool (and .def_169 .def_177))
(define-fun .def_176 () Bool (= .def_14 |%{$(in_main#0)<largest2>}#2|))
(define-fun .def_178 () Bool (and .def_168 .def_176))
(define-fun .def_180 () Bool (or .def_178 .def_179))
(define-fun .def_167 () Bool (not .def_166))
(define-fun .def_181 () Bool (and .def_167 .def_180))
(define-fun .def_188 () Bool (and .def_181 .def_186))
(define-fun .def_192 () Bool (or .def_188 .def_191))
(define-fun .def_205 () Bool (and .def_192 .def_204))
(define-fun .def_206 () Bool (and .def_164 .def_205))
(define-fun .def_212 () Bool (and .def_206 .def_211))
(define-fun .def_215 () Bool (or .def_212 .def_214))
(define-fun .def_148 () Bool (= .def_38 99))
(define-fun .def_117 () Bool (= !pc.next 131))
(define-fun .def_157 () Bool (and .def_117 .def_148))
(define-fun .def_69 () Bool (<= .def_8 .def_16))
(define-fun .def_146 () Bool (and .def_69 .def_145))
(define-fun .def_158 () Bool (and .def_146 .def_157))
(define-fun .def_154 () Bool (and .def_148 .def_153))
(define-fun .def_71 () Int (select .def_18 .def_16))
(define-fun .def_128 () Bool (<= .def_71 .def_12))
(define-fun .def_129 () Int (ite .def_128 1 0))
(define-fun .def_130 () Bool (= .def_129 0))
(define-fun .def_131 () Bool (not .def_130))
(define-fun .def_98 () Int (* (- 1) |!{$(in_main#0)<x>}.next|))
(define-fun .def_99 () Int (+ .def_16 .def_98))
(define-fun .def_100 () Bool (= .def_99 (- 1)))
(define-fun .def_101 () Bool (and .def_96 .def_100))
(define-fun .def_102 () Bool (and .def_91 .def_101))
(define-fun .def_141 () Bool (and .def_102 .def_131))
(define-fun .def_70 () Bool (not .def_69))
(define-fun .def_142 () Bool (and .def_70 .def_141))
(define-fun .def_155 () Bool (and .def_142 .def_154))
(define-fun .def_150 () Bool (= !pc.next 119))
(define-fun .def_151 () Bool (and .def_148 .def_150))
(define-fun .def_134 () Bool (and .def_81 .def_130))
(define-fun .def_135 () Bool (and .def_83 .def_134))
(define-fun .def_136 () Bool (and .def_85 .def_135))
(define-fun .def_137 () Bool (and .def_87 .def_136))
(define-fun .def_138 () Bool (and .def_89 .def_137))
(define-fun .def_139 () Bool (and .def_91 .def_138))
(define-fun .def_140 () Bool (and .def_70 .def_139))
(define-fun .def_152 () Bool (and .def_140 .def_151))
(define-fun .def_156 () Bool (or .def_152 .def_155))
(define-fun .def_159 () Bool (or .def_156 .def_158))
(define-fun .def_121 () Bool (= !pc.next 0))
(define-fun .def_112 () Bool (= .def_38 131))
(define-fun .def_122 () Bool (and .def_112 .def_121))
(define-fun .def_105 () Bool (and .def_69 .def_81))
(define-fun .def_106 () Bool (and .def_83 .def_105))
(define-fun .def_107 () Bool (and .def_85 .def_106))
(define-fun .def_108 () Bool (and .def_87 .def_107))
(define-fun .def_109 () Bool (and .def_89 .def_108))
(define-fun .def_110 () Bool (and .def_91 .def_109))
(define-fun .def_123 () Bool (and .def_110 .def_122))
(define-fun .def_118 () Bool (and .def_112 .def_117))
(define-fun .def_73 () Bool (= .def_12 .def_71))
(define-fun .def_72 () Bool (<= .def_71 .def_14))
(define-fun .def_74 () Bool (or .def_72 .def_73))
(define-fun .def_75 () Int (ite .def_74 1 0))
(define-fun .def_76 () Bool (= .def_75 0))
(define-fun .def_77 () Bool (not .def_76))
(define-fun .def_103 () Bool (and .def_77 .def_102))
(define-fun .def_104 () Bool (and .def_70 .def_103))
(define-fun .def_119 () Bool (and .def_104 .def_118))
(define-fun .def_114 () Bool (= !pc.next 151))
(define-fun .def_115 () Bool (and .def_112 .def_114))
(define-fun .def_82 () Bool (and .def_76 .def_81))
(define-fun .def_84 () Bool (and .def_82 .def_83))
(define-fun .def_86 () Bool (and .def_84 .def_85))
(define-fun .def_88 () Bool (and .def_86 .def_87))
(define-fun .def_90 () Bool (and .def_88 .def_89))
(define-fun .def_92 () Bool (and .def_90 .def_91))
(define-fun .def_93 () Bool (and .def_70 .def_92))
(define-fun .def_116 () Bool (and .def_93 .def_115))
(define-fun .def_120 () Bool (or .def_116 .def_119))
(define-fun .def_124 () Bool (or .def_120 .def_123))
(define-fun .def_67 () Bool (and .def_41 .def_66))
(define-fun .def_63 () Bool (= |!{$(in_main#0)<array.1>}.next| |%{$(in_main#0)<array.1>}#1|))
(define-fun .def_61 () Bool (= |!{$(in_main#0)<x>}.next| |%{$(in_main#0)<x>}#1|))
(define-fun .def_59 () Bool (= |!{$(in_main#0)<largest2>}.next| |%{$(in_main#0)<largest2>}#1|))
(define-fun .def_57 () Bool (= |!{$(in_main#0)<largest1>}.next| |%{$(in_main#0)<largest1>}#1|))
(define-fun .def_55 () Bool (= |!{$(in_main#0)<i>}.next| 0))
(define-fun .def_54 () Bool (= |!{$(in_main#0)<MAX>}.next| |!{$(in_main#0)<$(in___VERIFIER_nondet_int#0)<h#<__VERIFIER_nondet_int.return>>>}|))
(define-fun .def_56 () Bool (and .def_54 .def_55))
(define-fun .def_58 () Bool (and .def_56 .def_57))
(define-fun .def_60 () Bool (and .def_58 .def_59))
(define-fun .def_62 () Bool (and .def_60 .def_61))
(define-fun .def_64 () Bool (and .def_62 .def_63))
(define-fun .def_68 () Bool (and .def_64 .def_67))
(define-fun .def_125 () Bool (or .def_68 .def_124))
(define-fun .def_160 () Bool (or .def_125 .def_159))
(define-fun .def_216 () Bool (or .def_160 .def_215))
(define-fun .def_259 () Bool (! (or .def_216 .def_258) :trans true))
(define-fun .def_161 () Bool (= .def_38 119))
(define-fun .def_126 () Bool (= .def_38 151))
(define-fun .def_260 () Bool (or .def_126 .def_161))
(define-fun .def_261 () Bool (! (not .def_260) :invar-property 0 :invar-property-name ||))
(assert true)
